(set-info :smt-lib-version 2.6)
(set-logic QF_SLIA)
(set-info :source |
Generated by: Joel Day, Thorsten Ehlers, Mitja Kulczynski, Federico Mora, Florin Manea, Dirk Nowotka, Danny Poulsen, Zhengyang Lu
Application: Test WOORPJE
Target solver: WOORPJE
Publications: Day, J. D., Ehlers, T., Kulczynski, M., Manea, F., Nowotka, D., & Poulsen, D. B. (2019). On solving word equations using SAT. In RP 2019
Description: Enriches a system of 30 word equations by suitable linear constraints
|)
(set-info :license "https://creativecommons.org/licenses/by/4.0/")
(set-info :category "random")
(set-info :status unknown)

(declare-fun G () String)
(declare-fun D () String)
(declare-fun A () String)
(assert (= (str.++  "dfbadeebbbfadef" D D "c" D G "be" D "eadfd" D D "fcfd")  (str.++  "dfb" D A "d") ))
(assert (= (str.++  "fecfbdfa" D "cbec" D "efeabbebeeefcaafaecdf" D "dbfb")  (str.++  "fecfbdf" D "acbecaefe" D "bbebeeefc" D "af" D "ecdf" D "dbfb") ))
(assert (= (str.++  "ddeacffede" D "ee" D "bcebbffc" D "ddbfdabbefeeaefca")  (str.++  "ddeacffede" D "eeabcebbffcaddbfdabbefee" D "efc" D) ))
(assert (<=(* (str.len D) 2) 2))
(assert (>=(* (str.len A) 5) 40))
(assert (<=(* (str.len A) 5) 765))
(check-sat)

(exit)
